assignment_2/output/hhi_greedy_1/lambda50.0/a280_lambda50.0.txt
=== 테스트 결과 요약 ===
데이터셋           : a280
사용 알고리즘      : hhi_greedy_1 (lambda=50)
결과 파일          : output/hhi_greedy_1/lambda50.0/a280_lambda50.0.tour
정답 일치 여부     : 불일치
걸린 시간          : 1 ms
메모리 사용량      : 3712 KB
성능 상태          : 정상 실행됨

=== 비교 상세 로그 ===
헤더 차이 (라인 2)
GT   : COMMENT : Tour length 2579
내꺼 : COMMENT : Tour length 3399
노드 번호 차이 발견 (처음 일치하지 않은 라인 11)
GT   : 241
내꺼 : 245
TOUR_SECTION 비교 결과: 11 / 281 정확도: 3.91459%

[HHI_GREEDY 결과]
경로 길이          : 3399
꺾임 개수          : 276
평균 꺾임 각도      : 140.29도

⚠️ Greedy 경로 파일을 읽을 수 없습니다: output/greedy_1/a280_greedy_1.tour
