assignment_2/output/hhi_greedy_1/lambda50.0/a280_lambda50.0.tour
NAME : a280
COMMENT : Tour length 3399
TYPE : TOUR
DIMENSION : 280
TOUR_SECTION
1
2
242
243
244
245
240
239
238
231
232
233
234
235
236
237
246
247
250
251
230
229
228
227
226
225
224
223
222
219
218
215
214
211
210
207
208
209
252
253
254
255
256
257
258
259
260
261
262
263
264
265
266
138
137
136
135
134
270
269
268
267
140
139
148
141
142
143
144
145
146
147
149
150
178
151
152
156
153
155
154
129
128
21
20
19
18
17
16
271
272
273
274
275
276
277
4
279
278
248
249
206
205
204
203
202
200
199
198
197
194
195
196
201
217
216
213
212
241
280
3
5
6
7
8
9
15
13
12
11
10
14
24
23
25
22
26
27
28
29
31
30
125
124
123
122
121
120
119
157
158
159
160
175
161
162
163
164
165
166
167
168
169
101
100
99
98
93
94
95
96
97
92
91
90
89
81
80
78
77
75
74
73
72
71
70
67
66
65
64
63
62
118
117
115
114
111
110
108
104
103
102
170
171
172
173
106
105
109
112
88
83
84
85
86
116
113
87
82
79
76
68
69
54
47
46
45
44
57
56
55
53
48
49
50
51
52
38
37
36
35
39
40
41
42
43
60
61
58
59
34
33
32
126
127
130
131
132
133
179
180
181
176
177
174
107
188
189
190
191
192
193
186
187
185
184
183
182
220
221
1
-1
EOF